SCIP version 8.0.3 [precision: 8 byte] [memory: block] [mode: optimized] [LP solver: Soplex 6.0.3] [GitHash: 62fab8a2e3]
Copyright (C) 2002-2022 Konrad-Zuse-Zentrum fuer Informationstechnik Berlin (ZIB)

External libraries: 
  Soplex 6.0.3         Linear Programming Solver developed at Zuse Institute Berlin (soplex.zib.de) [GitHash: f900e3d0]
  CppAD 20180000.0     Algorithmic Differentiation of C++ algorithms developed by B. Bell (github.com/coin-or/CppAD)
  ZLIB 1.2.11          General purpose compression library by J. Gailly and M. Adler (zlib.net)
  GMP 6.2.1            GNU Multiple Precision Arithmetic Library developed by T. Granlund (gmplib.org)
  ZIMPL 3.5.3          Zuse Institute Mathematical Programming Language developed by T. Koch (zimpl.zib.de)
  AMPL/MP 4e2d45c4     AMPL .nl file reader library (github.com/ampl/mp)
  PaPILO 2.1.2         parallel presolve for integer and linear optimization (github.com/scipopt/papilo) [GitHash: 2fe2543]
  bliss 0.77           Computing Graph Automorphism Groups by T. Junttila and P. Kaski (www.tcs.hut.fi/Software/bliss/)
  Ipopt 3.13.2         Interior Point Optimizer developed by A. Waechter et.al. (github.com/coin-or/Ipopt)

user parameter file <scip.set> not found - using default parameters

read problem <projet/etape5/town16.zpl>
============


base directory for ZIMPL parsing: </home/alexis/ai_algorithms_module/projet/etape5>

